1363 241 10 480 1199
2441 1135 1 977 1006
771 1711 2 1128 1195
885 2440 3 823 959
2 126 4 1066 1184
1254 938 1 949 1085
1883 2340 4 761 981
2057 1661 1 941 1085
652 2271 3 1194 1196
605 1751 1 678 859
968 1528 4 719 753
700 1080 3 543 561
1166 1298 4 681 731
394 2219 4 764 908
1957 1908 4 1162 1179
672 1816 1 1098 1169
2294 970 3 616 734
608 1661 3 657 778
405 74 4 606 700
292 2218 2 863 1004
619 83 2 657 863
1621 2272 4 1133 1145
291 322 4 764 908
1205 1534 2 884 1049
2135 2452 3 1076 1185
2352 1409 1 741 821
